sat
(= |goto_symex::&92;guard#1| true)
(= |goto_symex::&92;guard#2| false)
(= |nondet_symex::nondet1| false)
(= |memory_model::choice_rf_1_22_0_11_T_0| false)
(= |memory_model::choice_rf_1_22_2_40_T_1| false)
(= |memory_model::choice_rf_1_22_3_17_T_2| true)
(= |memory_model::choice_rf_1_22_4_20_T_3| false)
(= |memory_model::choice_rf_2_39_0_11_T_4| false)
(= |memory_model::choice_rf_2_39_1_23_T_5| false)
(= |memory_model::choice_rf_2_39_3_17_T_6| false)
(= |memory_model::choice_rf_2_39_4_20_T_7| true)
(= |memory_model::choice_rf_3_16_0_11_T_8| true)
(= |memory_model::choice_rf_3_16_1_23_T_9| false)
(= |memory_model::choice_rf_3_16_2_40_T_10| false)
(= |memory_model::choice_rf_3_16_4_20_T_11| false)
(= |memory_model::choice_rf_4_19_0_11_T_12| true)
(= |memory_model::choice_rf_4_19_1_23_T_13| false)
(= |memory_model::choice_rf_4_19_2_40_T_14| false)
(= |memory_model::choice_rf_4_19_3_17_T_15| false)
(= |memory_model::choice_rf_0_48_0_9_T_16| false)
(= |memory_model::choice_rf_0_48_0_44_T_17| true)
(= |memory_model::choice_rf_0_53_0_9_T_18| false)
(= |memory_model::choice_rf_0_53_0_44_T_19| false)
(= |memory_model::choice_rf_0_53_0_49_T_20| true)
(= |memory_model::choice_rf_0_58_0_9_T_21| false)
(= |memory_model::choice_rf_0_58_0_44_T_22| false)
(= |memory_model::choice_rf_0_58_0_49_T_23| false)
(= |memory_model::choice_rf_0_58_0_54_T_24| true)
(= |memory_model::choice_rf_0_65_0_22_F_25| false)
(= |memory_model::choice_rf_0_65_1_15_F_26| false)
(= |memory_model::choice_rf_0_65_2_36_F_27| true)
(= |memory_model::choice_rf_0_65_3_13_F_28| false)
(= |memory_model::choice_rf_0_65_4_16_F_29| false)
(= |memory_model::choice_rf_1_7_0_22_F_30| false)
(= |memory_model::choice_rf_1_7_0_76_F_31| false)
(= |memory_model::choice_rf_1_7_2_36_F_32| false)
(= |memory_model::choice_rf_1_7_3_13_F_33| true)
(= |memory_model::choice_rf_1_7_4_16_F_34| false)
(= |memory_model::choice_rf_2_26_0_22_F_35| false)
(= |memory_model::choice_rf_2_26_0_76_F_36| false)
(= |memory_model::choice_rf_2_26_1_15_F_37| true)
(= |memory_model::choice_rf_2_26_3_13_F_38| false)
(= |memory_model::choice_rf_2_26_4_16_F_39| false)
(= |memory_model::choice_rf_3_5_0_22_F_40| false)
(= |memory_model::choice_rf_3_5_0_76_F_41| false)
(= |memory_model::choice_rf_3_5_1_15_F_42| false)
(= |memory_model::choice_rf_3_5_2_36_F_43| false)
(= |memory_model::choice_rf_3_5_4_16_F_44| true)
(= |memory_model::choice_rf_4_8_0_22_F_45| true)
(= |memory_model::choice_rf_4_8_0_76_F_46| false)
(= |memory_model::choice_rf_4_8_1_15_F_47| false)
(= |memory_model::choice_rf_4_8_2_36_F_48| false)
(= |memory_model::choice_rf_4_8_3_13_F_49| false)
(= |memory_model::choice_rf_0_62_0_12_F_50| false)
(= |memory_model::choice_rf_0_62_1_21_F_51| true)
(= |memory_model::choice_rf_0_62_2_38_F_52| false)
(= |memory_model::choice_rf_0_62_3_15_F_53| false)
(= |memory_model::choice_rf_0_62_4_18_F_54| false)
(= |memory_model::choice_rf_1_20_0_12_F_55| false)
(= |memory_model::choice_rf_1_20_2_38_F_56| false)
(= |memory_model::choice_rf_1_20_3_15_F_57| true)
(= |memory_model::choice_rf_1_20_4_18_F_58| false)
(= |memory_model::choice_rf_2_37_0_12_F_59| false)
(= |memory_model::choice_rf_2_37_1_21_F_60| false)
(= |memory_model::choice_rf_2_37_3_15_F_61| false)
(= |memory_model::choice_rf_2_37_4_18_F_62| true)
(= |memory_model::choice_rf_3_14_0_12_F_63| false)
(= |memory_model::choice_rf_3_14_1_21_F_64| false)
(= |memory_model::choice_rf_3_14_2_38_F_65| true)
(= |memory_model::choice_rf_3_14_4_18_F_66| false)
(= |memory_model::choice_rf_4_17_0_12_F_67| true)
(= |memory_model::choice_rf_4_17_1_21_F_68| false)
(= |memory_model::choice_rf_4_17_2_38_F_69| false)
(= |memory_model::choice_rf_4_17_3_15_F_70| false)
(= |memory_model::choice_rf_0_81_0_13_F_71| false)
(= |memory_model::choice_rf_0_81_1_13_F_72| true)
(= |memory_model::choice_rf_0_80_0_14_F_73| false)
(= |memory_model::choice_rf_0_80_2_24_F_74| true)
(= |memory_model::choice_rf_2_22_0_14_F_75| false)
(= |memory_model::choice_rf_0_79_0_15_F_76| false)
(= |memory_model::choice_rf_0_79_4_2_F_77| true)
(= |memory_model::choice_rf_0_78_0_16_F_78| false)
(= |memory_model::choice_rf_0_78_4_4_F_79| true)
(= |memory_model::choice_rf_4_3_0_17_F_80| true)
(= |memory_model::choice_rf_4_3_1_0_F_81| false)
(= |memory_model::choice_rf_0_64_0_18_F_82| false)
(= |memory_model::choice_rf_0_64_0_63_F_83| true)
(= |memory_model::choice_rf_0_77_0_19_F_84| false)
(= |memory_model::choice_rf_0_84_0_19_F_85| false)
(= |memory_model::choice_rf_0_84_0_83_F_86| true)
(= |memory_model::choice_rf_0_85_0_19_F_87| false)
(= |memory_model::choice_rf_0_85_0_83_F_88| true)
(= |memory_model::choice_rf_0_70_0_25_F_89| true)
(= |memory_model::choice_rf_2_8_0_25_F_90| true)
(= |memory_model::choice_rf_2_8_0_73_F_91| false)
(= |memory_model::choice_rf_1_5_0_26_F_92| true)
(= |memory_model::choice_rf_2_6_0_26_F_93| true)
(= |memory_model::choice_rf_2_6_1_9_F_94| false)
(= |memory_model::choice_rf_2_4_0_27_F_95| true)
(= |memory_model::choice_rf_2_30_0_27_F_96| false)
(= |memory_model::choice_rf_2_30_2_14_F_97| true)
(= |memory_model::choice_rf_2_2_0_28_F_98| true)
(= |memory_model::choice_rf_2_2_3_12_F_99| false)
(= |memory_model::choice_rf_3_7_0_28_F_100| true)
(= |memory_model::choice_rf_2_0_0_29_F_101| true)
(= |memory_model::choice_rf_2_0_4_15_F_102| false)
(= |memory_model::choice_rf_4_9_0_29_F_103| true)
(= |memory_model::choice_rf_0_67_0_30_F_104| false)
(= |memory_model::choice_rf_0_67_2_16_F_105| true)
(= |memory_model::choice_rf_2_7_0_30_F_106| false)
(= |memory_model::choice_rf_2_7_0_72_F_107| false)
(= |memory_model::choice_rf_1_4_0_31_F_108| false)
(= |memory_model::choice_rf_1_4_2_15_F_109| true)
(= |memory_model::choice_rf_2_5_0_31_F_110| false)
(= |memory_model::choice_rf_2_5_1_8_F_111| false)
(= |memory_model::choice_rf_2_3_0_32_F_112| false)
(= |memory_model::choice_rf_2_27_0_32_F_113| false)
(= |memory_model::choice_rf_2_27_2_13_F_114| true)
(= |memory_model::choice_rf_2_1_0_33_F_115| false)
(= |memory_model::choice_rf_2_1_3_11_F_116| false)
(= |memory_model::choice_rf_3_6_0_33_F_117| false)
(= |memory_model::choice_rf_3_6_2_12_F_118| true)
(= |memory_model::choice_rf_2_9_0_34_F_119| false)
(= |memory_model::choice_rf_2_9_4_13_F_120| false)
(= |memory_model::choice_rf_4_10_0_34_F_121| false)
(= |memory_model::choice_rf_4_10_2_17_F_122| true)
(= |memory_model::choice_rf_0_69_0_37_F_123| false)
(= |memory_model::choice_rf_0_69_1_14_F_124| true)
(= |memory_model::choice_rf_0_69_2_20_F_125| false)
(= |memory_model::choice_rf_1_2_0_37_F_126| false)
(= |memory_model::choice_rf_1_2_2_20_F_127| true)
(= |memory_model::choice_rf_2_11_0_37_F_128| true)
(= |memory_model::choice_rf_2_11_1_14_F_129| false)
(= |memory_model::choice_rf_2_29_0_37_F_130| false)
(= |memory_model::choice_rf_2_29_1_14_F_131| true)
(= |memory_model::choice_rf_2_29_2_20_F_132| false)
(= |memory_model::choice_rf_3_4_0_37_F_133| false)
(= |memory_model::choice_rf_3_4_1_14_F_134| false)
(= |memory_model::choice_rf_3_4_2_20_F_135| true)
(= |memory_model::choice_rf_4_7_0_37_F_136| false)
(= |memory_model::choice_rf_4_7_1_14_F_137| false)
(= |memory_model::choice_rf_4_7_2_20_F_138| true)
(= |memory_model::choice_rf_0_71_0_38_F_139| false)
(= |memory_model::choice_rf_0_71_1_11_F_140| false)
(= |memory_model::choice_rf_0_71_2_18_F_141| false)
(= |memory_model::choice_rf_0_71_2_34_F_142| true)
(= |memory_model::choice_rf_0_71_3_10_F_143| false)
(= |memory_model::choice_rf_0_71_4_14_F_144| false)
(= |memory_model::choice_rf_1_6_0_38_F_145| false)
(= |memory_model::choice_rf_1_6_0_75_F_146| false)
(= |memory_model::choice_rf_1_6_2_18_F_147| false)
(= |memory_model::choice_rf_1_6_2_34_F_148| false)
(= |memory_model::choice_rf_1_6_3_10_F_149| true)
(= |memory_model::choice_rf_1_6_4_14_F_150| false)
(= |memory_model::choice_rf_2_10_0_38_F_151| true)
(= |memory_model::choice_rf_2_10_0_75_F_152| false)
(= |memory_model::choice_rf_2_10_1_11_F_153| false)
(= |memory_model::choice_rf_2_10_3_10_F_154| false)
(= |memory_model::choice_rf_2_10_4_14_F_155| false)
(= |memory_model::choice_rf_2_31_0_38_F_156| false)
(= |memory_model::choice_rf_2_31_0_75_F_157| false)
(= |memory_model::choice_rf_2_31_1_11_F_158| true)
(= |memory_model::choice_rf_2_31_2_18_F_159| false)
(= |memory_model::choice_rf_2_31_3_10_F_160| false)
(= |memory_model::choice_rf_2_31_4_14_F_161| false)
(= |memory_model::choice_rf_3_8_0_38_F_162| false)
(= |memory_model::choice_rf_3_8_0_75_F_163| false)
(= |memory_model::choice_rf_3_8_1_11_F_164| false)
(= |memory_model::choice_rf_3_8_2_18_F_165| false)
(= |memory_model::choice_rf_3_8_2_34_F_166| false)
(= |memory_model::choice_rf_3_8_4_14_F_167| true)
(= |memory_model::choice_rf_4_11_0_38_F_168| false)
(= |memory_model::choice_rf_4_11_0_75_F_169| false)
(= |memory_model::choice_rf_4_11_1_11_F_170| false)
(= |memory_model::choice_rf_4_11_2_18_F_171| true)
(= |memory_model::choice_rf_4_11_2_34_F_172| false)
(= |memory_model::choice_rf_4_11_3_10_F_173| false)
(= |memory_model::choice_rf_0_66_0_39_F_174| false)
(= |memory_model::choice_rf_0_66_1_12_F_175| true)
(= |memory_model::choice_rf_0_66_2_21_F_176| false)
(= |memory_model::choice_rf_1_1_0_39_F_177| false)
(= |memory_model::choice_rf_1_1_2_21_F_178| true)
(= |memory_model::choice_rf_2_25_0_39_F_179| false)
(= |memory_model::choice_rf_2_25_1_12_F_180| true)
(= |memory_model::choice_rf_2_25_2_21_F_181| false)
(= |memory_model::choice_rf_3_2_0_39_F_182| false)
(= |memory_model::choice_rf_3_2_1_12_F_183| false)
(= |memory_model::choice_rf_3_2_2_21_F_184| true)
(= |memory_model::choice_rf_4_5_0_39_F_185| false)
(= |memory_model::choice_rf_4_5_1_12_F_186| false)
(= |memory_model::choice_rf_4_5_2_21_F_187| true)
(= |memory_model::choice_rf_0_68_0_40_F_188| false)
(= |memory_model::choice_rf_0_68_1_10_F_189| false)
(= |memory_model::choice_rf_0_68_2_19_F_190| false)
(= |memory_model::choice_rf_0_68_2_33_F_191| true)
(= |memory_model::choice_rf_0_68_3_9_F_192| false)
(= |memory_model::choice_rf_0_68_4_12_F_193| false)
(= |memory_model::choice_rf_1_3_0_40_F_194| false)
(= |memory_model::choice_rf_1_3_0_74_F_195| false)
(= |memory_model::choice_rf_1_3_2_19_F_196| false)
(= |memory_model::choice_rf_1_3_2_33_F_197| false)
(= |memory_model::choice_rf_1_3_3_9_F_198| true)
(= |memory_model::choice_rf_1_3_4_12_F_199| false)
(= |memory_model::choice_rf_2_28_0_40_F_200| false)
(= |memory_model::choice_rf_2_28_0_74_F_201| false)
(= |memory_model::choice_rf_2_28_1_10_F_202| true)
(= |memory_model::choice_rf_2_28_2_19_F_203| false)
(= |memory_model::choice_rf_2_28_3_9_F_204| false)
(= |memory_model::choice_rf_2_28_4_12_F_205| false)
(= |memory_model::choice_rf_3_3_0_40_F_206| false)
(= |memory_model::choice_rf_3_3_0_74_F_207| false)
(= |memory_model::choice_rf_3_3_1_10_F_208| false)
(= |memory_model::choice_rf_3_3_2_19_F_209| false)
(= |memory_model::choice_rf_3_3_2_33_F_210| false)
(= |memory_model::choice_rf_3_3_4_12_F_211| true)
(= |memory_model::choice_rf_4_6_0_40_F_212| false)
(= |memory_model::choice_rf_4_6_0_74_F_213| false)
(= |memory_model::choice_rf_4_6_1_10_F_214| false)
(= |memory_model::choice_rf_4_6_2_19_F_215| true)
(= |memory_model::choice_rf_4_6_2_33_F_216| false)
(= |memory_model::choice_rf_4_6_3_9_F_217| false)
(= |memory_model::choice_rf_2_23_0_41_F_218| true)
(= |memory_model::choice_rf_2_23_3_0_F_219| false)
(= |memory_model::choice_rf_0_82_0_42_F_220| false)
(= |memory_model::choice_rf_0_82_3_1_F_221| false)
(= |memory_model::choice_rf_0_82_4_0_F_222| true)
(= |memory_model::choice_rf_4_1_0_42_F_223| false)
(= |memory_model::choice_rf_4_1_3_1_F_224| false)
(= |memory_model::choice_rf_4_1_4_0_F_225| true)
(= |memory_model::choice_ws-ext_0_11_1_23_T_226| true)
(= |memory_model::choice_ws-ext_0_11_2_40_T_227| true)
(= |memory_model::choice_ws-ext_0_11_3_17_T_228| true)
(= |memory_model::choice_ws-ext_0_11_4_20_T_229| true)
(= |memory_model::choice_ws-ext_1_23_2_40_T_230| false)
(= |memory_model::choice_ws-ext_1_23_3_17_T_231| false)
(= |memory_model::choice_ws-ext_1_23_4_20_T_232| false)
(= |memory_model::choice_ws-ext_2_40_3_17_T_233| true)
(= |memory_model::choice_ws-ext_2_40_4_20_T_234| false)
(= |memory_model::choice_ws-ext_3_17_4_20_T_235| false)
(= |memory_model::choice_ws-ext_0_22_1_15_F_236| true)
(= |memory_model::choice_ws-ext_0_22_2_36_F_237| true)
(= |memory_model::choice_ws-ext_0_22_3_13_F_238| true)
(= |memory_model::choice_ws-ext_0_22_4_16_F_239| true)
(= |memory_model::choice_ws-ext_0_76_1_15_F_240| false)
(= |memory_model::choice_ws-ext_0_76_2_36_F_241| false)
(= |memory_model::choice_ws-ext_0_76_3_13_F_242| false)
(= |memory_model::choice_ws-ext_0_76_4_16_F_243| false)
(= |memory_model::choice_ws-ext_1_15_2_36_F_244| true)
(= |memory_model::choice_ws-ext_1_15_3_13_F_245| false)
(= |memory_model::choice_ws-ext_1_15_4_16_F_246| false)
(= |memory_model::choice_ws-ext_2_36_3_13_F_247| false)
(= |memory_model::choice_ws-ext_2_36_4_16_F_248| false)
(= |memory_model::choice_ws-ext_3_13_4_16_F_249| false)
(= |memory_model::choice_ws-ext_0_12_1_21_F_250| true)
(= |memory_model::choice_ws-ext_0_12_2_38_F_251| true)
(= |memory_model::choice_ws-ext_0_12_3_15_F_252| true)
(= |memory_model::choice_ws-ext_0_12_4_18_F_253| true)
(= |memory_model::choice_ws-ext_1_21_2_38_F_254| false)
(= |memory_model::choice_ws-ext_1_21_3_15_F_255| false)
(= |memory_model::choice_ws-ext_1_21_4_18_F_256| false)
(= |memory_model::choice_ws-ext_2_38_3_15_F_257| true)
(= |memory_model::choice_ws-ext_2_38_4_18_F_258| false)
(= |memory_model::choice_ws-ext_3_15_4_18_F_259| false)
(= |memory_model::choice_ws-ext_0_13_1_13_F_260| true)
(= |memory_model::choice_ws-ext_0_14_2_24_F_261| true)
(= |memory_model::choice_ws-ext_0_15_4_2_F_262| true)
(= |memory_model::choice_ws-ext_0_16_4_4_F_263| true)
(= |memory_model::choice_ws-ext_0_17_1_0_F_264| true)
(= |memory_model::choice_ws-ext_0_23_1_16_F_265| true)
(= |memory_model::choice_ws-ext_0_24_1_18_F_266| true)
(= |memory_model::choice_ws-ext_0_26_1_9_F_267| true)
(= |memory_model::choice_ws-ext_0_27_2_14_F_268| true)
(= |memory_model::choice_ws-ext_0_27_2_32_F_269| true)
(= |memory_model::choice_ws-ext_0_28_3_12_F_270| true)
(= |memory_model::choice_ws-ext_0_29_4_15_F_271| true)
(= |memory_model::choice_ws-ext_0_30_2_16_F_272| true)
(= |memory_model::choice_ws-ext_0_72_2_16_F_273| false)
(= |memory_model::choice_ws-ext_0_31_1_8_F_274| true)
(= |memory_model::choice_ws-ext_0_31_2_15_F_275| true)
(= |memory_model::choice_ws-ext_1_8_2_15_F_276| false)
(= |memory_model::choice_ws-ext_0_32_2_13_F_277| true)
(= |memory_model::choice_ws-ext_0_32_2_35_F_278| true)
(= |memory_model::choice_ws-ext_0_33_2_12_F_279| true)
(= |memory_model::choice_ws-ext_0_33_3_11_F_280| true)
(= |memory_model::choice_ws-ext_2_12_3_11_F_281| true)
(= |memory_model::choice_ws-ext_0_34_2_17_F_282| true)
(= |memory_model::choice_ws-ext_0_34_4_13_F_283| true)
(= |memory_model::choice_ws-ext_2_17_4_13_F_284| true)
(= |memory_model::choice_ws-ext_0_37_1_14_F_285| true)
(= |memory_model::choice_ws-ext_0_37_2_20_F_286| true)
(= |memory_model::choice_ws-ext_1_14_2_20_F_287| false)
(= |memory_model::choice_ws-ext_0_38_1_11_F_288| true)
(= |memory_model::choice_ws-ext_0_38_2_18_F_289| true)
(= |memory_model::choice_ws-ext_0_38_2_34_F_290| true)
(= |memory_model::choice_ws-ext_0_38_3_10_F_291| true)
(= |memory_model::choice_ws-ext_0_38_4_14_F_292| true)
(= |memory_model::choice_ws-ext_0_75_1_11_F_293| false)
(= |memory_model::choice_ws-ext_0_75_2_18_F_294| false)
(= |memory_model::choice_ws-ext_0_75_2_34_F_295| false)
(= |memory_model::choice_ws-ext_0_75_3_10_F_296| false)
(= |memory_model::choice_ws-ext_0_75_4_14_F_297| false)
(= |memory_model::choice_ws-ext_1_11_2_18_F_298| false)
(= |memory_model::choice_ws-ext_1_11_2_34_F_299| true)
(= |memory_model::choice_ws-ext_1_11_3_10_F_300| false)
(= |memory_model::choice_ws-ext_1_11_4_14_F_301| false)
(= |memory_model::choice_ws-ext_2_18_3_10_F_302| true)
(= |memory_model::choice_ws-ext_2_18_4_14_F_303| true)
(= |memory_model::choice_ws-ext_2_34_3_10_F_304| false)
(= |memory_model::choice_ws-ext_2_34_4_14_F_305| false)
(= |memory_model::choice_ws-ext_3_10_4_14_F_306| false)
(= |memory_model::choice_ws-ext_0_39_1_12_F_307| true)
(= |memory_model::choice_ws-ext_0_39_2_21_F_308| true)
(= |memory_model::choice_ws-ext_1_12_2_21_F_309| false)
(= |memory_model::choice_ws-ext_0_40_1_10_F_310| true)
(= |memory_model::choice_ws-ext_0_40_2_19_F_311| true)
(= |memory_model::choice_ws-ext_0_40_2_33_F_312| true)
(= |memory_model::choice_ws-ext_0_40_3_9_F_313| true)
(= |memory_model::choice_ws-ext_0_40_4_12_F_314| true)
(= |memory_model::choice_ws-ext_0_74_1_10_F_315| false)
(= |memory_model::choice_ws-ext_0_74_2_19_F_316| false)
(= |memory_model::choice_ws-ext_0_74_2_33_F_317| false)
(= |memory_model::choice_ws-ext_0_74_3_9_F_318| false)
(= |memory_model::choice_ws-ext_0_74_4_12_F_319| false)
(= |memory_model::choice_ws-ext_1_10_2_19_F_320| false)
(= |memory_model::choice_ws-ext_1_10_2_33_F_321| true)
(= |memory_model::choice_ws-ext_1_10_3_9_F_322| false)
(= |memory_model::choice_ws-ext_1_10_4_12_F_323| false)
(= |memory_model::choice_ws-ext_2_19_3_9_F_324| true)
(= |memory_model::choice_ws-ext_2_19_4_12_F_325| true)
(= |memory_model::choice_ws-ext_2_33_3_9_F_326| false)
(= |memory_model::choice_ws-ext_2_33_4_12_F_327| false)
(= |memory_model::choice_ws-ext_3_9_4_12_F_328| false)
(= |memory_model::choice_ws-ext_0_41_3_0_F_329| true)
(= |memory_model::choice_ws-ext_0_42_3_1_F_330| true)
(= |memory_model::choice_ws-ext_0_42_4_0_F_331| true)
(= |memory_model::choice_ws-ext_3_1_4_0_F_332| true)
(= |memory_model::choice_ws-ext_0_20_1_19_F_333| true)
(= |memory_model::choice_ws-ext_0_21_1_17_F_334| true)
(= |main$tmp_guard0#3| #b00000001)
(= |__CPROVER_next_thread_id#3| #b00000000000000000000000000000001)
(= |__CPROVER_next_thread_id#6| #b00000000000000000000000000000010)
(= |__CPROVER_next_thread_id#9| #b00000000000000000000000000000011)
(= |__unbuffered_cnt#2| #b00000000000000000000000000000100)
(= |x$w_buff0_used#2| #b00000000)
(= |x$r_buff0_thd0#2| #b00000000)
(= |x$w_buff0#2| #b00000000000000000000000000000001)
(= |x$w_buff1_used#2| #b00000000)
(= |x$r_buff1_thd0#2| #b00000000)
(= |x$w_buff1#2| #b00000000000000000000000000000000)
(= |x#2| #b00000000000000000000000000000001)
(= |x#4| #b00000000000000000000000000000001)
(= |x$w_buff0_used#6| #b00000000)
(= |x$w_buff1_used#6| #b00000000)
(= |x$r_buff0_thd0#8| #b00000000)
(= |x$r_buff1_thd0#7| #b00000000)
(= |z#2| #b00000000000000000000000000000010)
(= |__unbuffered_p0_EAX#2| #b00000000000000000000000000000000)
(= |__unbuffered_p1_EAX#2| #b00000000000000000000000000000000)
(= |__unbuffered_p3_EAX#2| #b00000000000000000000000000000010)
(= |__unbuffered_p3_EBX#2| #b00000000000000000000000000000000)
(= |main$tmp_guard1#2| #b00000000)
(= |main$tmp_guard1#3| #b00000001)
(= |main$tmp_guard1#6| #b00000000)
(= |pthread_create::1::this_thread_id!1@0#0| #b10000000000000000000000000000000)
(= |x#6| #b00000000000000000000000000000000)
(= |x$w_buff0_used#11| #b00000001)
(= |x$r_buff0_thd1#2| #b00000000)
(= |x$w_buff1_used#9| #b00000000)
(= |x$r_buff1_thd1#2| #b00000000)
(= |x$w_buff0#4| #b00000000000000000000000000000001)
(= |x$w_buff1#4| #b00000000000000000000000000000000)
(= |__unbuffered_cnt#4| #b00000000000000000000000000000011)
(= |pthread_create::1::this_thread_id!2@0#0| #b00000000000000000000000000000000)
(= |x$w_buff0#7| #b00000000000000000000000000000000)
(= |x$w_buff0_used#14| #b00000000)
(= |x$r_buff0_thd0#11| #b00000000)
(= |x$r_buff1_thd0#9| #b00000000)
(= |x$r_buff1_thd0#10| #b00000000)
(= |x$r_buff0_thd1#5| #b00000000)
(= |x$r_buff1_thd1#5| #b00000000)
(= |x$r_buff1_thd1#6| #b00000000)
(= |x$r_buff0_thd2#2| #b00000000)
(= |x$r_buff1_thd2#2| #b00000000)
(= |x$r_buff1_thd2#3| #b00000000)
(= |x$r_buff0_thd3#2| #b00000000)
(= |x$r_buff1_thd3#2| #b00000000)
(= |x$r_buff1_thd3#3| #b10000000)
(= |x$r_buff0_thd4#2| #b00000000)
(= |x$r_buff1_thd4#2| #b00000000)
(= |x$r_buff1_thd4#3| #b10000000)
(= |x$r_buff0_thd2#4| #b00000001)
(= |y#2| #b00000000000000000000000000000000)
(= |__unbuffered_p1_EAX#4| #b00000000000000000000000000000000)
(= |__unbuffered_p1_EAX#5| #b10000000000000000000000000000000)
(= |x$w_buff0_used#17| #b00000001)
(= |x$r_buff0_thd2#6| #b00000001)
(= |x$w_buff0#10| #b00000000000000000000000000000001)
(= |x$w_buff1_used#13| #b00000000)
(= |x$r_buff1_thd2#5| #b00000000)
(= |x$w_buff1#8| #b00000000000000000000000000000000)
(= |x#10| #b00000000000000000000000000000000)
(= |x#12| #b00000000000000000000000000000001)
(= |x$w_buff0_used#21| #b00000000)
(= |x$w_buff1_used#17| #b00000000)
(= |x$r_buff0_thd2#12| #b00000001)
(= |x$r_buff1_thd2#10| #b00000000)
(= |__unbuffered_cnt#7| #b00000000000000000000000000000001)
(= |__unbuffered_cnt#9| #b00000000000000000000000000000010)
(= |pthread_create::1::this_thread_id!3@0#0| #b10000000000000000000000000000000)
(= |x$w_buff0_used#26| #b00000001)
(= |x$r_buff0_thd3#4| #b00000000)
(= |x$w_buff0#12| #b00000000000000000000000000000001)
(= |x$w_buff1_used#20| #b00000000)
(= |x$r_buff1_thd3#5| #b00000000)
(= |x$w_buff1#10| #b00000000000000000000000000000000)
(= |x#14| #b00000000000000000000000000000000)
(= |__unbuffered_cnt#11| #b00000000000000000000000000000010)
(= |pthread_create::1::this_thread_id!4@0#0| #b10000000000000000000000000000000)
(= |z#6| #b00000000000000000000000000000010)
(= |a#3| #b00000000000000000000000000000000)
(= |x$w_buff0_used#29| #b00000001)
(= |x$r_buff0_thd4#4| #b00000000)
(= |x$w_buff0#14| #b00000000000000000000000000000001)
(= |x$w_buff1_used#23| #b00000000)
(= |x$r_buff1_thd4#5| #b00000000)
(= |x$w_buff1#12| #b00000000000000000000000000000000)
(= |x#17| #b00000000000000000000000000000000)
(= |__unbuffered_cnt#14| #b00000000000000000000000000000000)
(= |__CPROVER_threads_exited#1$wclk$8| #b01111110)
(= |__CPROVER_threads_exited#2$rclk$8| #b11111110)
(= |__CPROVER_threads_exited#5$wclk$8| #b11110111)
(= |__CPROVER_threads_exited#7$wclk$8| #b11111100)
(= |__CPROVER_threads_exited#9$wclk$8| #b11110101)
(= |__CPROVER_threads_exited#4$rclk$8| #b11110110)
(= |__CPROVER_threads_exited#3$wclk$8| #b11111111)
(= |__CPROVER_threads_exited#6$rclk$8| #b11110011)
(= |__CPROVER_threads_exited#8$rclk$8| #b11110100)
(= |x#9$wclk$8| #b11101001)
(= |x#2$rclk$8| #b11110111)
(= |x#13$wclk$8| #b11110000)
(= |x#16$wclk$8| #b11011011)
(= |x#19$wclk$8| #b10111111)
(= |x#1$wclk$8| #b10010010)
(= |x#6$rclk$8| #b11101001)
(= |x#5$wclk$8| #b11110111)
(= |x#10$rclk$8| #b11110000)
(= |x#14$rclk$8| #b11011011)
(= |x#17$rclk$8| #b10111111)
(= |__unbuffered_cnt#6$wclk$8| #b11110100)
(= |__unbuffered_cnt#2$rclk$8| #b11110101)
(= |__unbuffered_cnt#10$wclk$8| #b11110001)
(= |__unbuffered_cnt#13$wclk$8| #b11110010)
(= |__unbuffered_cnt#16$wclk$8| #b11110000)
(= |__unbuffered_cnt#1$wclk$8| #b10000010)
(= |__unbuffered_cnt#4$rclk$8| #b11110100)
(= |__unbuffered_cnt#7$rclk$8| #b11110001)
(= |__unbuffered_cnt#11$rclk$8| #b11110010)
(= |__unbuffered_cnt#14$rclk$8| #b11110000)
(= |__unbuffered_p0_EAX#4$wclk$8| #b11101001)
(= |__unbuffered_p0_EAX#2$rclk$8| #b11111010)
(= |__unbuffered_p1_EAX#6$wclk$8| #b10111000)
(= |__unbuffered_p1_EAX#2$rclk$8| #b11111010)
(= |__unbuffered_p1_EAX#1$wclk$8| #b10000100)
(= |__unbuffered_p1_EAX#5$rclk$8| #b10111000)
(= |__unbuffered_p3_EAX#4$wclk$8| #b10111101)
(= |__unbuffered_p3_EAX#2$rclk$8| #b11111010)
(= |__unbuffered_p3_EBX#4$wclk$8| #b10111110)
(= |__unbuffered_p3_EBX#2$rclk$8| #b11111010)
(= |a#1$wclk$8| #b10001001)
(= |a#3$rclk$8| #b10111110)
(= |a#2$wclk$8| #b11010111)
(= |main$tmp_guard1#5| #b00000000)
(= |x$r_buff0_thd0#1$wclk$8| #b10010101)
(= |x$r_buff0_thd0#11$rclk$8| #b10110011)
(= |x$r_buff0_thd0#10$wclk$8| #b11110111)
(= |x$r_buff0_thd1#1$wclk$8| #b10010110)
(= |x$r_buff0_thd1#2$rclk$8| #b11101001)
(= |x$r_buff0_thd1#5$rclk$8| #b10110011)
(= |x$r_buff0_thd1#4$wclk$8| #b11101001)
(= |x$r_buff0_thd2#1$wclk$8| #b10010111)
(= |x$r_buff0_thd2#2$rclk$8| #b10110011)
(= |x$r_buff0_thd2#6$rclk$8| #b11110000)
(= |x$r_buff0_thd3#1$wclk$8| #b10011010)
(= |x$r_buff0_thd3#2$rclk$8| #b10110011)
(= |x$r_buff0_thd3#6$wclk$8| #b11011011)
(= |x$r_buff0_thd3#4$rclk$8| #b11011011)
(= |x$r_buff0_thd4#1$wclk$8| #b10011100)
(= |x$r_buff0_thd4#2$rclk$8| #b10110011)
(= |x$r_buff0_thd4#6$wclk$8| #b10111111)
(= |x$r_buff0_thd4#4$rclk$8| #b10111111)
(= |x$r_buff1_thd0#11$wclk$8| #b10110011)
(= |x$r_buff1_thd0#2$rclk$8| #b11110111)
(= |x$r_buff1_thd0#1$wclk$8| #b10011101)
(= |x$r_buff1_thd0#10$rclk$8| #b10110011)
(= |x$r_buff1_thd0#8$wclk$8| #b11110111)
(= |x$r_buff1_thd1#1$wclk$8| #b10011110)
(= |x$r_buff1_thd1#2$rclk$8| #b11101001)
(= |x$r_buff1_thd1#7$wclk$8| #b10110011)
(= |x$r_buff1_thd1#6$rclk$8| #b10110011)
(= |x$r_buff1_thd1#4$wclk$8| #b11101001)
(= |x$r_buff1_thd2#1$wclk$8| #b10011111)
(= |x$r_buff1_thd2#3$rclk$8| #b10110011)
(= |x$r_buff1_thd2#5$rclk$8| #b11110000)
(= |x$r_buff1_thd3#1$wclk$8| #b10100000)
(= |x$r_buff1_thd3#3$rclk$8| #b10110011)
(= |x$r_buff1_thd3#7$wclk$8| #b11011011)
(= |x$r_buff1_thd3#5$rclk$8| #b11011011)
(= |x$r_buff1_thd3#4$wclk$8| #b10110011)
(= |x$r_buff1_thd4#1$wclk$8| #b10100001)
(= |x$r_buff1_thd4#3$rclk$8| #b10110011)
(= |x$r_buff1_thd4#7$wclk$8| #b10111111)
(= |x$r_buff1_thd4#5$rclk$8| #b10111111)
(= |x$r_buff1_thd4#4$wclk$8| #b10110011)
(= |x$w_buff0#6$wclk$8| #b11101001)
(= |x$w_buff0#2$rclk$8| #b11110111)
(= |x$w_buff0#9$wclk$8| #b10110011)
(= |x$w_buff0#1$wclk$8| #b10100100)
(= |x$w_buff0#4$rclk$8| #b11101001)
(= |x$w_buff0#7$rclk$8| #b10110011)
(= |x$w_buff0#10$rclk$8| #b11110000)
(= |x$w_buff0#12$rclk$8| #b11011011)
(= |x$w_buff0#14$rclk$8| #b10111111)
(= |x$w_buff0_used#13$wclk$8| #b11101001)
(= |x$w_buff0_used#2$rclk$8| #b11110111)
(= |x$w_buff0_used#16$wclk$8| #b10110011)
(= |x$w_buff0_used#25$wclk$8| #b11110000)
(= |x$w_buff0_used#28$wclk$8| #b11011011)
(= |x$w_buff0_used#31$wclk$8| #b10111111)
(= |x$w_buff0_used#1$wclk$8| #b10100101)
(= |x$w_buff0_used#11$rclk$8| #b11101001)
(= |x$w_buff0_used#10$wclk$8| #b11110111)
(= |x$w_buff0_used#14$rclk$8| #b10110011)
(= |x$w_buff0_used#17$rclk$8| #b11110000)
(= |x$w_buff0_used#26$rclk$8| #b11011011)
(= |x$w_buff0_used#29$rclk$8| #b10111111)
(= |x$w_buff1#6$wclk$8| #b11101001)
(= |x$w_buff1#2$rclk$8| #b11110111)
(= |x$w_buff1#7$wclk$8| #b10110011)
(= |x$w_buff1#1$wclk$8| #b10100110)
(= |x$w_buff1#4$rclk$8| #b11101001)
(= |x$w_buff1#8$rclk$8| #b11110000)
(= |x$w_buff1#10$rclk$8| #b11011011)
(= |x$w_buff1#12$rclk$8| #b10111111)
(= |x$w_buff1_used#11$wclk$8| #b11101001)
(= |x$w_buff1_used#2$rclk$8| #b11110111)
(= |x$w_buff1_used#12$wclk$8| #b10110011)
(= |x$w_buff1_used#19$wclk$8| #b11110000)
(= |x$w_buff1_used#22$wclk$8| #b11011011)
(= |x$w_buff1_used#25$wclk$8| #b10111111)
(= |x$w_buff1_used#1$wclk$8| #b10100111)
(= |x$w_buff1_used#9$rclk$8| #b11101001)
(= |x$w_buff1_used#8$wclk$8| #b11110111)
(= |x$w_buff1_used#13$rclk$8| #b11110000)
(= |x$w_buff1_used#20$rclk$8| #b11011011)
(= |x$w_buff1_used#23$rclk$8| #b10111111)
(= |y#1$wclk$8| #b10101000)
(= |y#2$rclk$8| #b10111000)
(= |y#4$wclk$8| #b10111001)
(= |z#4$wclk$8| #b10111010)
(= |z#2$rclk$8| #b11111010)
(= |z#5$wclk$8| #b10111100)
(= |z#1$wclk$8| #b10101001)
(= |z#6$rclk$8| #b10111101)
(= |__unbuffered_p0_EAX#1$wclk$8| #b10000011)
(= |__unbuffered_p3_EAX#1$wclk$8| #b10000101)
(= |__unbuffered_p3_EBX#1$wclk$8| #b10001000)
(= |x$flush_delayed#1$wclk$8| #b10010011)
(= |x$flush_delayed#3$wclk$8| #b11101001)
(= |x$mem_tmp#1$wclk$8| #b10010100)
(= |x$mem_tmp#2$wclk$8| #b11101001)
(= |x$r_buff0_thd2#5$wclk$8| #b10110011)
(= |x$r_buff0_thd2#14$wclk$8| #b11110000)
(= |x$r_buff1_thd2#4$wclk$8| #b10110011)
(= |x$r_buff1_thd2#11$wclk$8| #b11110000)
(= |weak$$choice0#1$wclk$8| #b10010000)
(= |weak$$choice0#2$wclk$8| #b11101001)
(= |weak$$choice2#1$wclk$8| #b10010001)
(= |weak$$choice2#2$wclk$8| #b11101001)
(= t1$46$spwnclk$8 #b10101110)
(= t1$51$spwnclk$8 #b10110010)
(= t1$56$spwnclk$8 #b10110110)
(= t1$61$spwnclk$8 #b10111010)
(= |main::1::t712!0@1$wclk$8| #b00000000)
(= |main::1::t713!0@1$wclk$8| #b01000000)
(= |main::1::t714!0@1$wclk$8| #b01100000)
(= |__CPROVER_dead_object#1$wclk$8| #b01110000)
(= |__CPROVER_deallocated#1$wclk$8| #b01110001)
(= |__CPROVER_malloc_is_new_array#1$wclk$8| #b01110010)
(= |__CPROVER_malloc_object#1$wclk$8| #b01110101)
(= |__CPROVER_malloc_size#1$wclk$8| #b01110110)
(= |__CPROVER_memory_leak#1$wclk$8| #b01110111)
(= |__CPROVER_next_thread_id#1$wclk$8| #b01111010)
(= |__CPROVER_pipe_count#1$wclk$8| #b01111011)
(= |main$tmp_guard0#1$wclk$8| #b10001010)
(= |main$tmp_guard1#1$wclk$8| #b10001011)
(= |x$read_delayed#1$wclk$8| #b10100010)
(= |x$read_delayed_var#1$wclk$8| #b10100011)
(= |main::1::t711!0@1#1$wclk$8| #b10101010)
(= |__CPROVER_next_thread_id#2$wclk$8| #b10101011)
(= |main::1::t711!0@1#2$wclk$8| #b10101100)
(= |main::1::t712!0@1#1$wclk$8| #b10101111)
(= |__CPROVER_next_thread_id#3$rclk$8| #b10110000)
(= |__CPROVER_next_thread_id#5$wclk$8| #b10110000)
(= |main::1::t712!0@1#2$wclk$8| #b10110001)
(= |main::1::t713!0@1#1$wclk$8| #b10110011)
(= |__CPROVER_next_thread_id#6$rclk$8| #b10110100)
(= |__CPROVER_next_thread_id#8$wclk$8| #b10110100)
(= |main::1::t713!0@1#2$wclk$8| #b10110101)
(= |main::1::t714!0@1#1$wclk$8| #b10110111)
(= |__CPROVER_next_thread_id#9$rclk$8| #b10111000)
(= |__CPROVER_next_thread_id#11$wclk$8| #b10111000)
(= |main::1::t714!0@1#2$wclk$8| #b10111001)
(= |main$tmp_guard0#2$wclk$8| #b11110101)
(= |main$tmp_guard0#3$rclk$8| #b11110110)
(= |x$r_buff0_thd0#2$rclk$8| #b11110111)
(= |main$tmp_guard1#3$rclk$8| #b11111010)
(= |main$tmp_guard1#4$wclk$8| #b11111010)
(= |main$tmp_guard1#5$rclk$8| #b11111011)
(= |main$tmp_guard1#6$rclk$8| #b11111111)
(= array_of.0 @fun_11)
(= |__CPROVER_threads_exited#2| @fun_7)
(= |__CPROVER_threads_exited#4| @fun_7)
(= |__CPROVER_threads_exited#6| @fun_11)
(= |__CPROVER_threads_exited#8| @fun_11)
(function @fun_11
 (type (Array (_ BitVec 32) (_ BitVec 1)))
 (= (@fun_11 #b00000000000000000000000000000000) #b0)
 (= (@fun_11 #b10000000000000000000000000000000) #b0)
 (default #b1))
(function @fun_7
 (type (Array (_ BitVec 32) (_ BitVec 1)))
 (= (@fun_7 #b00000000000000000000000000000000) #b0)
 (default #b1))

real	0m0.029s
user	0m0.026s
sys	0m0.003s
State: AC Run_time: 0.03137946128845215